c This file was generated with the constraints_to_cnf module in this project.
c Starting from file 'constraint.sympy'.
c There are 5 variables present in the constraints, and 16 total variables, given by the shape [4, 4].
c
p cnf 16 4
7 0
13 0
7 11 0
6 -1 0

